(set-info :smt-lib-version 2.6)
(set-logic QF_NIA)
(set-info :source |
Generated by: Cristina Borralleras, Daniel Larraz, Albert Oliveras, Enric Rodriguez-Carbonell, Albert Rubio
Generated on: 2017-04-27
Generator: VeryMax
Application: Termination proving
Target solver: barcelogic
|)
(set-info :license "https://creativecommons.org/licenses/by/4.0/")
(set-info :category "industrial")
(set-info :status unknown)
(declare-fun Nl5main_i1 () Int)
(declare-fun Nl5main_j1 () Int)
(declare-fun Nl5main_i2 () Int)
(declare-fun Nl5main_j2 () Int)
(declare-fun Nl5main_i3 () Int)
(declare-fun Nl5main_j3 () Int)
(declare-fun lam0n0 () Int)
(declare-fun lam0n1 () Int)
(declare-fun lam0n2 () Int)
(declare-fun lam0n3 () Int)
(declare-fun lam0n4 () Int)
(declare-fun Nl5CT1 () Int)
(declare-fun Nl5CT2 () Int)
(declare-fun Nl5CT3 () Int)
(declare-fun lam1n0 () Int)
(declare-fun lam1n1 () Int)
(declare-fun lam1n2 () Int)
(declare-fun lam1n3 () Int)
(declare-fun lam1n4 () Int)
(declare-fun lam2n0 () Int)
(declare-fun lam2n1 () Int)
(declare-fun lam2n2 () Int)
(declare-fun lam2n3 () Int)
(declare-fun lam2n4 () Int)
(declare-fun lam3n0 () Int)
(declare-fun lam3n1 () Int)
(declare-fun lam3n2 () Int)
(declare-fun lam3n3 () Int)
(declare-fun lam3n4 () Int)
(declare-fun lam4n0 () Int)
(declare-fun lam4n1 () Int)
(declare-fun lam4n2 () Int)
(declare-fun lam4n3 () Int)
(declare-fun lam4n4 () Int)
(declare-fun lam4n5 () Int)
(declare-fun lam5n0 () Int)
(declare-fun lam5n1 () Int)
(declare-fun lam5n2 () Int)
(declare-fun lam5n3 () Int)
(declare-fun lam5n4 () Int)
(declare-fun lam5n5 () Int)
(declare-fun lam6n0 () Int)
(declare-fun lam6n1 () Int)
(declare-fun lam6n2 () Int)
(declare-fun lam6n3 () Int)
(declare-fun lam6n4 () Int)
(declare-fun lam6n5 () Int)
(declare-fun lam7n0 () Int)
(declare-fun lam7n1 () Int)
(declare-fun lam7n2 () Int)
(declare-fun lam7n3 () Int)
(declare-fun lam7n4 () Int)
(declare-fun lam7n5 () Int)
(declare-fun lam8n0 () Int)
(declare-fun lam8n1 () Int)
(declare-fun lam9n0 () Int)
(declare-fun lam9n1 () Int)
(declare-fun lam10n0 () Int)
(declare-fun lam10n1 () Int)
(declare-fun undef2 () Int)
(declare-fun main_i () Int)
(declare-fun lam14n0 () Int)
(declare-fun lam14n1 () Int)
(declare-fun lam14n2 () Int)
(declare-fun lam14n3 () Int)
(declare-fun lam14n4 () Int)
(declare-fun RFN1_CT () Int)
(declare-fun RFN1_main_j () Int)
(declare-fun lam12n0 () Int)
(declare-fun lam12n1 () Int)
(declare-fun lam12n2 () Int)
(declare-fun lam12n3 () Int)
(declare-fun lam12n4 () Int)
(declare-fun lam13n0 () Int)
(declare-fun lam13n1 () Int)
(declare-fun lam13n2 () Int)
(declare-fun lam13n3 () Int)
(declare-fun lam13n4 () Int)
(declare-fun lam11n0 () Int)
(declare-fun lam11n1 () Int)
(declare-fun lam11n2 () Int)
(declare-fun lam11n3 () Int)
(declare-fun lam11n4 () Int)
(assert ( and ( <= ( - 1 ) Nl5main_i1 ) ( <= Nl5main_i1 1 ) ( <= ( - 1 ) Nl5main_j1 ) ( <= Nl5main_j1 1 ) ( <= ( - 1 ) Nl5main_i2 ) ( <= Nl5main_i2 1 ) ( <= ( - 1 ) Nl5main_j2 ) ( <= Nl5main_j2 1 ) ( <= ( - 1 ) Nl5main_i3 ) ( <= Nl5main_i3 1 ) ( <= ( - 1 ) Nl5main_j3 ) ( <= Nl5main_j3 1 ) ))
(assert ( or ( and ( >= lam0n0 0 ) ( >= lam0n1 0 ) ( >= lam0n2 0 ) ( >= lam0n3 0 ) ( >= lam0n4 0 ) ( > ( + ( * 6 lam0n1 ) ( * Nl5CT1 lam0n2 ) ( * Nl5CT2 lam0n3 ) ( * Nl5CT3 lam0n4 ) ( - 1 ) ) 0 ) ( = ( + ( * 1 lam0n0 ) ( * Nl5main_i1 lam0n2 ) ( * Nl5main_i2 lam0n3 ) ( * Nl5main_i3 lam0n4 ) ) 0 ) ( = ( + ( * ( - 1 ) lam0n0 ) ( * ( - 1 ) lam0n1 ) ( * Nl5main_j1 lam0n2 ) ( * Nl5main_j2 lam0n3 ) ( * Nl5main_j3 lam0n4 ) ) 0 ) ) ( and ( >= lam1n0 0 ) ( >= lam1n1 0 ) ( >= lam1n2 0 ) ( >= lam1n3 0 ) ( >= lam1n4 0 ) ( > ( + ( * 6 lam1n1 ) ( * Nl5CT1 lam1n2 ) ( * Nl5CT2 lam1n3 ) ( * Nl5CT3 lam1n4 ) ( - 1 ( + Nl5CT1 ( * Nl5main_j1 1 ) ) ) ) 0 ) ( = ( + ( * 1 lam1n0 ) ( * Nl5main_i1 lam1n2 ) ( * Nl5main_i2 lam1n3 ) ( * Nl5main_i3 lam1n4 ) ( - ( + 0 Nl5main_i1 ) ) ) 0 ) ( = ( + ( * ( - 1 ) lam1n0 ) ( * ( - 1 ) lam1n1 ) ( * Nl5main_j1 lam1n2 ) ( * Nl5main_j2 lam1n3 ) ( * Nl5main_j3 lam1n4 ) ( - ( + 0 ( * Nl5main_j1 1 ) ) ) ) 0 ) ) ))
(assert ( or ( and ( >= lam0n0 0 ) ( >= lam0n1 0 ) ( >= lam0n2 0 ) ( >= lam0n3 0 ) ( >= lam0n4 0 ) ( > ( + ( * 6 lam0n1 ) ( * Nl5CT1 lam0n2 ) ( * Nl5CT2 lam0n3 ) ( * Nl5CT3 lam0n4 ) ( - 1 ) ) 0 ) ( = ( + ( * 1 lam0n0 ) ( * Nl5main_i1 lam0n2 ) ( * Nl5main_i2 lam0n3 ) ( * Nl5main_i3 lam0n4 ) ) 0 ) ( = ( + ( * ( - 1 ) lam0n0 ) ( * ( - 1 ) lam0n1 ) ( * Nl5main_j1 lam0n2 ) ( * Nl5main_j2 lam0n3 ) ( * Nl5main_j3 lam0n4 ) ) 0 ) ) ( and ( >= lam2n0 0 ) ( >= lam2n1 0 ) ( >= lam2n2 0 ) ( >= lam2n3 0 ) ( >= lam2n4 0 ) ( > ( + ( * 6 lam2n1 ) ( * Nl5CT1 lam2n2 ) ( * Nl5CT2 lam2n3 ) ( * Nl5CT3 lam2n4 ) ( - 1 ( + Nl5CT2 ( * Nl5main_j2 1 ) ) ) ) 0 ) ( = ( + ( * 1 lam2n0 ) ( * Nl5main_i1 lam2n2 ) ( * Nl5main_i2 lam2n3 ) ( * Nl5main_i3 lam2n4 ) ( - ( + 0 Nl5main_i2 ) ) ) 0 ) ( = ( + ( * ( - 1 ) lam2n0 ) ( * ( - 1 ) lam2n1 ) ( * Nl5main_j1 lam2n2 ) ( * Nl5main_j2 lam2n3 ) ( * Nl5main_j3 lam2n4 ) ( - ( + 0 ( * Nl5main_j2 1 ) ) ) ) 0 ) ) ))
(assert ( or ( and ( >= lam0n0 0 ) ( >= lam0n1 0 ) ( >= lam0n2 0 ) ( >= lam0n3 0 ) ( >= lam0n4 0 ) ( > ( + ( * 6 lam0n1 ) ( * Nl5CT1 lam0n2 ) ( * Nl5CT2 lam0n3 ) ( * Nl5CT3 lam0n4 ) ( - 1 ) ) 0 ) ( = ( + ( * 1 lam0n0 ) ( * Nl5main_i1 lam0n2 ) ( * Nl5main_i2 lam0n3 ) ( * Nl5main_i3 lam0n4 ) ) 0 ) ( = ( + ( * ( - 1 ) lam0n0 ) ( * ( - 1 ) lam0n1 ) ( * Nl5main_j1 lam0n2 ) ( * Nl5main_j2 lam0n3 ) ( * Nl5main_j3 lam0n4 ) ) 0 ) ) ( and ( >= lam3n0 0 ) ( >= lam3n1 0 ) ( >= lam3n2 0 ) ( >= lam3n3 0 ) ( >= lam3n4 0 ) ( > ( + ( * 6 lam3n1 ) ( * Nl5CT1 lam3n2 ) ( * Nl5CT2 lam3n3 ) ( * Nl5CT3 lam3n4 ) ( - 1 ( + Nl5CT3 ( * Nl5main_j3 1 ) ) ) ) 0 ) ( = ( + ( * 1 lam3n0 ) ( * Nl5main_i1 lam3n2 ) ( * Nl5main_i2 lam3n3 ) ( * Nl5main_i3 lam3n4 ) ( - ( + 0 Nl5main_i3 ) ) ) 0 ) ( = ( + ( * ( - 1 ) lam3n0 ) ( * ( - 1 ) lam3n1 ) ( * Nl5main_j1 lam3n2 ) ( * Nl5main_j2 lam3n3 ) ( * Nl5main_j3 lam3n4 ) ( - ( + 0 ( * Nl5main_j3 1 ) ) ) ) 0 ) ) ))
(assert ( or ( and ( >= lam4n0 0 ) ( >= lam4n1 0 ) ( >= lam4n2 0 ) ( >= lam4n3 0 ) ( >= lam4n4 0 ) ( >= lam4n5 0 ) ( > ( + ( * ( - 5 ) lam4n1 ) ( * ( - 8 ) lam4n2 ) ( * Nl5CT1 lam4n3 ) ( * Nl5CT2 lam4n4 ) ( * Nl5CT3 lam4n5 ) ( - 1 ) ) 0 ) ( = ( + ( * 1 lam4n0 ) ( * 1 lam4n2 ) ( * Nl5main_i1 lam4n3 ) ( * Nl5main_i2 lam4n4 ) ( * Nl5main_i3 lam4n5 ) ) 0 ) ( = ( + ( * ( - 1 ) lam4n0 ) ( * 1 lam4n1 ) ( * Nl5main_j1 lam4n3 ) ( * Nl5main_j2 lam4n4 ) ( * Nl5main_j3 lam4n5 ) ) 0 ) ) ( and ( >= lam5n0 0 ) ( >= lam5n1 0 ) ( >= lam5n2 0 ) ( >= lam5n3 0 ) ( >= lam5n4 0 ) ( >= lam5n5 0 ) ( > ( + ( * ( - 5 ) lam5n1 ) ( * ( - 8 ) lam5n2 ) ( * Nl5CT1 lam5n3 ) ( * Nl5CT2 lam5n4 ) ( * Nl5CT3 lam5n5 ) ( - 1 ( + ( + Nl5CT1 ( * Nl5main_i1 1 ) ) ( * Nl5main_j1 1 ) ) ) ) 0 ) ( = ( + ( * 1 lam5n0 ) ( * 1 lam5n2 ) ( * Nl5main_i1 lam5n3 ) ( * Nl5main_i2 lam5n4 ) ( * Nl5main_i3 lam5n5 ) ( - ( + ( + 0 ( * Nl5main_i1 1 ) ) ( * Nl5main_j1 1 ) ) ) ) 0 ) ( = ( + ( * ( - 1 ) lam5n0 ) ( * 1 lam5n1 ) ( * Nl5main_j1 lam5n3 ) ( * Nl5main_j2 lam5n4 ) ( * Nl5main_j3 lam5n5 ) ) 0 ) ) ))
(assert ( or ( and ( >= lam4n0 0 ) ( >= lam4n1 0 ) ( >= lam4n2 0 ) ( >= lam4n3 0 ) ( >= lam4n4 0 ) ( >= lam4n5 0 ) ( > ( + ( * ( - 5 ) lam4n1 ) ( * ( - 8 ) lam4n2 ) ( * Nl5CT1 lam4n3 ) ( * Nl5CT2 lam4n4 ) ( * Nl5CT3 lam4n5 ) ( - 1 ) ) 0 ) ( = ( + ( * 1 lam4n0 ) ( * 1 lam4n2 ) ( * Nl5main_i1 lam4n3 ) ( * Nl5main_i2 lam4n4 ) ( * Nl5main_i3 lam4n5 ) ) 0 ) ( = ( + ( * ( - 1 ) lam4n0 ) ( * 1 lam4n1 ) ( * Nl5main_j1 lam4n3 ) ( * Nl5main_j2 lam4n4 ) ( * Nl5main_j3 lam4n5 ) ) 0 ) ) ( and ( >= lam6n0 0 ) ( >= lam6n1 0 ) ( >= lam6n2 0 ) ( >= lam6n3 0 ) ( >= lam6n4 0 ) ( >= lam6n5 0 ) ( > ( + ( * ( - 5 ) lam6n1 ) ( * ( - 8 ) lam6n2 ) ( * Nl5CT1 lam6n3 ) ( * Nl5CT2 lam6n4 ) ( * Nl5CT3 lam6n5 ) ( - 1 ( + ( + Nl5CT2 ( * Nl5main_i2 1 ) ) ( * Nl5main_j2 1 ) ) ) ) 0 ) ( = ( + ( * 1 lam6n0 ) ( * 1 lam6n2 ) ( * Nl5main_i1 lam6n3 ) ( * Nl5main_i2 lam6n4 ) ( * Nl5main_i3 lam6n5 ) ( - ( + ( + 0 ( * Nl5main_i2 1 ) ) ( * Nl5main_j2 1 ) ) ) ) 0 ) ( = ( + ( * ( - 1 ) lam6n0 ) ( * 1 lam6n1 ) ( * Nl5main_j1 lam6n3 ) ( * Nl5main_j2 lam6n4 ) ( * Nl5main_j3 lam6n5 ) ) 0 ) ) ))
(assert ( or ( and ( >= lam4n0 0 ) ( >= lam4n1 0 ) ( >= lam4n2 0 ) ( >= lam4n3 0 ) ( >= lam4n4 0 ) ( >= lam4n5 0 ) ( > ( + ( * ( - 5 ) lam4n1 ) ( * ( - 8 ) lam4n2 ) ( * Nl5CT1 lam4n3 ) ( * Nl5CT2 lam4n4 ) ( * Nl5CT3 lam4n5 ) ( - 1 ) ) 0 ) ( = ( + ( * 1 lam4n0 ) ( * 1 lam4n2 ) ( * Nl5main_i1 lam4n3 ) ( * Nl5main_i2 lam4n4 ) ( * Nl5main_i3 lam4n5 ) ) 0 ) ( = ( + ( * ( - 1 ) lam4n0 ) ( * 1 lam4n1 ) ( * Nl5main_j1 lam4n3 ) ( * Nl5main_j2 lam4n4 ) ( * Nl5main_j3 lam4n5 ) ) 0 ) ) ( and ( >= lam7n0 0 ) ( >= lam7n1 0 ) ( >= lam7n2 0 ) ( >= lam7n3 0 ) ( >= lam7n4 0 ) ( >= lam7n5 0 ) ( > ( + ( * ( - 5 ) lam7n1 ) ( * ( - 8 ) lam7n2 ) ( * Nl5CT1 lam7n3 ) ( * Nl5CT2 lam7n4 ) ( * Nl5CT3 lam7n5 ) ( - 1 ( + ( + Nl5CT3 ( * Nl5main_i3 1 ) ) ( * Nl5main_j3 1 ) ) ) ) 0 ) ( = ( + ( * 1 lam7n0 ) ( * 1 lam7n2 ) ( * Nl5main_i1 lam7n3 ) ( * Nl5main_i2 lam7n4 ) ( * Nl5main_i3 lam7n5 ) ( - ( + ( + 0 ( * Nl5main_i3 1 ) ) ( * Nl5main_j3 1 ) ) ) ) 0 ) ( = ( + ( * ( - 1 ) lam7n0 ) ( * 1 lam7n1 ) ( * Nl5main_j1 lam7n3 ) ( * Nl5main_j2 lam7n4 ) ( * Nl5main_j3 lam7n5 ) ) 0 ) ) ))
(assert ( and ( <= ( + ( - 9 ) undef2 ) 0 ) ( = ( + main_i ( * ( - 1 ) undef2 ) ) 0 ) ( <= ( + ( + Nl5CT1 ( * Nl5main_j1 0 ) ) ( * ( + 0 Nl5main_i1 ) main_i ) ( * ( + 0 ( * Nl5main_j1 1 ) ) undef2 ) ) 0 ) ( <= ( + ( + Nl5CT2 ( * Nl5main_j2 0 ) ) ( * ( + 0 Nl5main_i2 ) main_i ) ( * ( + 0 ( * Nl5main_j2 1 ) ) undef2 ) ) 0 ) ( <= ( + ( + Nl5CT3 ( * Nl5main_j3 0 ) ) ( * ( + 0 Nl5main_i3 ) main_i ) ( * ( + 0 ( * Nl5main_j3 1 ) ) undef2 ) ) 0 ) ( <= ( + main_i ( * ( - 1 ) undef2 ) ) 0 ) ))
(assert ( or ( and ( and ( >= lam14n0 0 ) ( >= lam14n1 0 ) ( >= lam14n2 0 ) ( >= lam14n3 0 ) ( >= lam14n4 0 ) ( > ( + ( * 50001 lam14n1 ) ( * Nl5CT1 lam14n2 ) ( * Nl5CT2 lam14n3 ) ( * Nl5CT3 lam14n4 ) ( - 1 ( - ( + RFN1_CT ( * RFN1_main_j 1 ) ) RFN1_CT ) ) ) 0 ) ( = ( + ( * 1 lam14n0 ) ( * Nl5main_i1 lam14n2 ) ( * Nl5main_i2 lam14n3 ) ( * Nl5main_i3 lam14n4 ) ) 0 ) ( = ( + ( * ( - 1 ) lam14n0 ) ( * ( - 1 ) lam14n1 ) ( * Nl5main_j1 lam14n2 ) ( * Nl5main_j2 lam14n3 ) ( * Nl5main_j3 lam14n4 ) ( - ( - ( + 0 ( * RFN1_main_j 1 ) ) RFN1_main_j ) ) ) 0 ) ) ( and ( and ( >= lam12n0 0 ) ( >= lam12n1 0 ) ( >= lam12n2 0 ) ( >= lam12n3 0 ) ( >= lam12n4 0 ) ( > ( + ( * 50001 lam12n1 ) ( * Nl5CT1 lam12n2 ) ( * Nl5CT2 lam12n3 ) ( * Nl5CT3 lam12n4 ) ( - 1 ( - RFN1_CT ) ) ) 0 ) ( = ( + ( * 1 lam12n0 ) ( * Nl5main_i1 lam12n2 ) ( * Nl5main_i2 lam12n3 ) ( * Nl5main_i3 lam12n4 ) ) 0 ) ( = ( + ( * ( - 1 ) lam12n0 ) ( * ( - 1 ) lam12n1 ) ( * Nl5main_j1 lam12n2 ) ( * Nl5main_j2 lam12n3 ) ( * Nl5main_j3 lam12n4 ) ( - ( - RFN1_main_j ) ) ) 0 ) ) ( and ( >= lam13n0 0 ) ( >= lam13n1 0 ) ( >= lam13n2 0 ) ( >= lam13n3 0 ) ( >= lam13n4 0 ) ( > ( + ( * 50001 lam13n1 ) ( * Nl5CT1 lam13n2 ) ( * Nl5CT2 lam13n3 ) ( * Nl5CT3 lam13n4 ) ( - 1 ( + ( - ( + RFN1_CT ( * RFN1_main_j 1 ) ) RFN1_CT ) 1 ) ) ) 0 ) ( = ( + ( * 1 lam13n0 ) ( * Nl5main_i1 lam13n2 ) ( * Nl5main_i2 lam13n3 ) ( * Nl5main_i3 lam13n4 ) ) 0 ) ( = ( + ( * ( - 1 ) lam13n0 ) ( * ( - 1 ) lam13n1 ) ( * Nl5main_j1 lam13n2 ) ( * Nl5main_j2 lam13n3 ) ( * Nl5main_j3 lam13n4 ) ( - ( - ( + 0 ( * RFN1_main_j 1 ) ) RFN1_main_j ) ) ) 0 ) ) ) ) ( and ( >= lam11n0 0 ) ( >= lam11n1 0 ) ( >= lam11n2 0 ) ( >= lam11n3 0 ) ( >= lam11n4 0 ) ( > ( + ( * 50001 lam11n1 ) ( * Nl5CT1 lam11n2 ) ( * Nl5CT2 lam11n3 ) ( * Nl5CT3 lam11n4 ) ( - 1 ) ) 0 ) ( = ( + ( * 1 lam11n0 ) ( * Nl5main_i1 lam11n2 ) ( * Nl5main_i2 lam11n3 ) ( * Nl5main_i3 lam11n4 ) ) 0 ) ( = ( + ( * ( - 1 ) lam11n0 ) ( * ( - 1 ) lam11n1 ) ( * Nl5main_j1 lam11n2 ) ( * Nl5main_j2 lam11n3 ) ( * Nl5main_j3 lam11n4 ) ) 0 ) ) ))
(check-sat)
(exit)
